0 0 0 0
0 1 2 0
0 2 1 0
0 3 0 0
0 4 0 1
0 5 0 3
0 6 0 4
0 7 1 5
0 8 0 3
0 9 1 6
0 10 0 7
0 11 0 9
0 12 2 1
0 13 0 9
0 14 0 7
0 15 0 5
0 16 0 6
0 17 1 4
0 18 1 13
0 19 2 8
0 20 0 15
0 21 0 15
0 22 0 16
0 23 0 11
0 24 0 17
0 25 0 16
0 26 0 20
0 27 0 17
0 28 0 23
0 29 0 18
0 30 2 13
0 31 0 25
